c A SAT instance generated from a 3-CNF formula that had 16 clauses and 8 variables
p cnf 8 16
-2 -6 -7 0
6 -8 7 0
8 -2 3 0
-4 6 -5 0
-7 8 -6 0
7 2 5 0
4 -6 2 0
6 -2 8 0
-6 5 1 0
5 -1 -3 0
4 7 -6 0
6 2 -1 0
7 -1 -4 0
3 -1 -5 0
-1 -5 3 0
-3 -2 -1 0
